\ENCODING=ISO-8859-1
\Problem name: instances

Maximize
 obj:
Subject To
 c1: 286 x1 + 961 x2 + 90 x3 + 978 x4 + 349 x5 + 97 x6 + 455 x7 + 23 x8
     + 251 x9 + 460 x10 + 30 x11 + 270 x12 + 858 x13 + 17 x14 + 740 x15
     + 922 x16 + 586 x17 + 552 x18 + 31 x19 + 212 x20 + 385 x21 + 936 x22
     + 358 x23 + 800 x24 + 552 x25 + 740 x26 + 981 x27 + 456 x28 + 236 x29
     + 497 x30 + 109 x31 + 522 x32 + 458 x33 + 198 x34 + 499 x35 + 806 x36
     + 294 x37 + 953 x38 + 829 x39 + 545 x40 + 413 x41 + 858 x42 + 814 x43
     + 271 x44 + 875 x45 + 553 x46 + 193 x47 + 460 x48 + 105 x49 + 223 x50
     + 671 x51 + 490 x52 + 159 x53 + 29 x54 + 290 x55 + 710 x56 + 769 x57
     + 270 x58 + 165 x59 + 4 x60 + 767 x61 + 273 x62 + 526 x63 + 224 x64
     + 471 x65 + 25 x66 + 30 x67 + 765 x68 + 978 x69 + 859 x70 + 309 x71
     + 390 x72 + 716 x73 + 123 x74 + 661 x75 + 590 x76 + 676 x77 + 853 x78
     + 50 x79 + 781 x80 + 76 x81 + 721 x82 + 271 x83 + 234 x84 + 750 x85
     + 560 x86 + 944 x87 + 518 x88 + 830 x89 + 109 x90 <= 21362
Bounds
 0 <= x1 <= 1
 0 <= x2 <= 1
 0 <= x3 <= 1
 0 <= x4 <= 1
 0 <= x5 <= 1
 0 <= x6 <= 1
 0 <= x7 <= 1
 0 <= x8 <= 1
 0 <= x9 <= 1
 0 <= x10 <= 1
 0 <= x11 <= 1
 0 <= x12 <= 1
 0 <= x13 <= 1
 0 <= x14 <= 1
 0 <= x15 <= 1
 0 <= x16 <= 1
 0 <= x17 <= 1
 0 <= x18 <= 1
 0 <= x19 <= 1
 0 <= x20 <= 1
 0 <= x21 <= 1
 0 <= x22 <= 1
 0 <= x23 <= 1
 0 <= x24 <= 1
 0 <= x25 <= 1
 0 <= x26 <= 1
 0 <= x27 <= 1
 0 <= x28 <= 1
 0 <= x29 <= 1
 0 <= x30 <= 1
 0 <= x31 <= 1
 0 <= x32 <= 1
 0 <= x33 <= 1
 0 <= x34 <= 1
 0 <= x35 <= 1
 0 <= x36 <= 1
 0 <= x37 <= 1
 0 <= x38 <= 1
 0 <= x39 <= 1
 0 <= x40 <= 1
 0 <= x41 <= 1
 0 <= x42 <= 1
 0 <= x43 <= 1
 0 <= x44 <= 1
 0 <= x45 <= 1
 0 <= x46 <= 1
 0 <= x47 <= 1
 0 <= x48 <= 1
 0 <= x49 <= 1
 0 <= x50 <= 1
 0 <= x51 <= 1
 0 <= x52 <= 1
 0 <= x53 <= 1
 0 <= x54 <= 1
 0 <= x55 <= 1
 0 <= x56 <= 1
 0 <= x57 <= 1
 0 <= x58 <= 1
 0 <= x59 <= 1
 0 <= x60 <= 1
 0 <= x61 <= 1
 0 <= x62 <= 1
 0 <= x63 <= 1
 0 <= x64 <= 1
 0 <= x65 <= 1
 0 <= x66 <= 1
 0 <= x67 <= 1
 0 <= x68 <= 1
 0 <= x69 <= 1
 0 <= x70 <= 1
 0 <= x71 <= 1
 0 <= x72 <= 1
 0 <= x73 <= 1
 0 <= x74 <= 1
 0 <= x75 <= 1
 0 <= x76 <= 1
 0 <= x77 <= 1
 0 <= x78 <= 1
 0 <= x79 <= 1
 0 <= x80 <= 1
 0 <= x81 <= 1
 0 <= x82 <= 1
 0 <= x83 <= 1
 0 <= x84 <= 1
 0 <= x85 <= 1
 0 <= x86 <= 1
 0 <= x87 <= 1
 0 <= x88 <= 1
 0 <= x89 <= 1
 0 <= x90 <= 1
Binaries
 x1  x2  x3  x4  x5  x6  x7  x8  x9  x10  x11  x12  x13  x14  x15  x16  x17 
 x18  x19  x20  x21  x22  x23  x24  x25  x26  x27  x28  x29  x30  x31  x32 
 x33  x34  x35  x36  x37  x38  x39  x40  x41  x42  x43  x44  x45  x46  x47 
 x48  x49  x50  x51  x52  x53  x54  x55  x56  x57  x58  x59  x60  x61  x62 
 x63  x64  x65  x66  x67  x68  x69  x70  x71  x72  x73  x74  x75  x76  x77 
 x78  x79  x80  x81  x82  x83  x84  x85  x86  x87  x88  x89  x90 
End
